(set-info :source |printed by MathSAT|)

1 (55,60,56,61,57) @37:
(assert true)

55 () @390:
(assert true)

60 () @390:
(assert true)

56 () @390:
(assert true)

61 () @390:
(assert true)

57 () @390:
(assert true)

